coords = array2d(1..31, 1..2, [853, 398, 515, 958, 128, 251, 883, 793, 848,
    878, 966, 312, 836, 170, 839, 272, 428, 894, 876, 743, 82, 696,
    836, 729, 294, 677, 885, 457, 513, 391, 758, 208, 252, 455, 305,
    610, 928, 46, 951, 406, 298, 608, 754, 623, 879, 522, 31, 59, 627,
    402, 750, 276, 406, 147, 342, 57, 652, 863, 44, 771, 974, 2]);

n = 31;

